122     4       
17      14      14      14      
0       0       0       0       0       3       2       3       4       
7       9       0       0       0       2       17      53      
2       0       0       4       0       3       10      13      14      
8       0       0       10      0       3       5       6       31      
2       0       0       1       0       2       8       78      
10      5       0       0       0       3       7       9       11      
10      0       0       1       0       3       12      18      19      
2       9       0       0       0       2       35      69      
9       0       1       0       0       2       29      88      
9       0       8       0       0       3       23      24      27      
8       0       4       0       0       2       15      63      
7       0       0       6       0       3       30      33      41      
5       0       0       0       9       2       21      32      
7       0       0       10      0       3       16      25      55      
3       0       0       9       0       1       39      
3       0       0       1       0       2       43      57      
6       0       2       0       0       1       100     
7       0       8       0       0       3       22      39      79      
9       0       0       0       8       2       20      66      
9       0       0       1       0       2       37      51      
3       7       0       0       0       2       52      103     
5       0       0       0       1       3       34      85      104     
4       0       0       10      0       3       26      28      38      
2       0       0       7       0       2       35      47      
10      7       0       0       0       2       48      121     
10      0       0       0       7       3       60      69      101     
9       0       1       0       0       1       102     
4       1       0       0       0       2       36      73      
2       1       0       0       0       1       46      
7       7       0       0       0       2       45      76      
1       0       0       4       0       1       42      
4       7       0       0       0       1       94      
4       1       0       0       0       1       60      
6       7       0       0       0       2       40      116     
7       0       0       0       4       1       56      
9       0       8       0       0       1       54      
3       0       0       0       9       1       68      
5       0       5       0       0       1       61      
9       6       0       0       0       2       44      105     
2       2       0       0       0       1       96      
5       9       0       0       0       1       115     
9       0       5       0       0       1       70      
2       0       0       10      0       2       50      65      
8       8       0       0       0       1       76      
4       0       0       1       0       3       49      72      89      
6       4       0       0       0       1       97      
6       0       2       0       0       2       58      81      
5       0       1       0       0       1       82      
6       0       7       0       0       1       83      
1       0       0       7       0       2       59      102     
2       0       0       0       10      2       84      108     
6       0       0       0       7       1       62      
6       0       0       0       7       1       110     
9       0       0       0       1       1       96      
5       0       0       0       6       1       90      
1       6       0       0       0       1       91      
8       0       7       0       0       1       82      
1       0       0       3       0       1       64      
4       0       0       1       0       1       61      
3       0       0       0       8       3       65      72      113     
9       3       0       0       0       2       67      74      
5       0       0       0       3       1       75      
3       0       7       0       0       2       71      80      
9       0       3       0       0       2       86      106     
10      8       0       0       0       2       77      91      
3       0       0       5       0       2       70      98      
6       0       0       0       6       1       87      
8       0       0       0       10      1       114     
9       0       0       2       0       2       89      118     
10      7       0       0       0       1       103     
5       0       0       0       6       1       88      
1       0       3       0       0       1       95      
4       0       0       1       0       1       108     
9       0       0       0       5       1       97      
9       6       0       0       0       1       99      
1       0       0       6       0       1       77      
6       0       0       0       5       1       109     
7       0       0       4       0       1       121     
9       0       4       0       0       2       90      95      
5       0       10      0       0       1       109     
8       0       3       0       0       3       94      96      101     
3       0       0       8       0       1       97      
6       8       0       0       0       2       114     119     
8       0       0       6       0       1       92      
2       0       0       0       1       1       95      
9       0       0       0       2       1       92      
5       0       0       0       4       1       93      
9       0       4       0       0       1       104     
8       0       0       7       0       1       106     
9       9       0       0       0       1       115     
6       0       0       0       6       1       93      
6       0       0       0       1       1       112     
9       0       10      0       0       1       117     
8       0       0       8       0       1       104     
5       0       2       0       0       1       105     
7       10      0       0       0       2       103     105     
8       0       0       0       6       2       99      100     
2       0       0       9       0       2       107     120     
5       1       0       0       0       1       101     
1       0       0       0       1       1       111     
3       3       0       0       0       1       113     
4       0       4       0       0       1       107     
7       5       0       0       0       2       112     117     
5       0       0       0       8       1       109     
7       0       7       0       0       1       119     
2       0       0       1       0       1       111     
8       0       0       6       0       1       115     
10      0       0       0       10      1       114     
6       10      0       0       0       1       116     
4       0       3       0       0       1       117     
3       0       0       6       0       1       113     
4       0       0       0       10      1       121     
2       0       0       0       8       1       116     
6       7       0       0       0       1       118     
2       1       0       0       0       1       119     
10      0       0       9       0       1       120     
9       8       0       0       0       1       118     
7       0       5       0       0       1       120     
2       7       0       0       0       1       122     
8       0       0       0       10      1       122     
10      0       0       9       0       1       122     
0       0       0       0       0       0       